(set-info :smt-lib-version 2.6)
(set-logic QF_S)
(set-info :source |
Generated by: Murphy Berzish, Mitja Kulczynski, Federico Mora, Florin Manea, Joel Day, Dirk Nowotka, Vijay Ganesh, Zhengyang Lu
Generated on: 2020-10-01
Description: Translated from a collection of real-world regex queries, AutomataArk, collected by Loris D’Antoni and Fang Wang: https://github.com/lorisdanto/automatark
Application: Evaluate solvers on real-world regex queries
Target solver: Z3str3RE, CVC4, OSTRICH, Z3seq, Z3str3, Z3-Trau
Publications: Berzish, M., Kulczynski, M., Mora, F., Manea, F., Day, J. D., Nowotka, D., & Ganesh, V. (2021, July). An SMT solver for regular expressions and linear arithmetic over string length. In CAV 2021.
|)
(set-info :license "https://creativecommons.org/licenses/by/4.0/")
(set-info :category "industrial")
(set-info :status unknown)

(declare-const X String)
(assert (str.in_re X (re.++ (re.union (re.++ (str.to_re "Jan") (re.opt (str.to_re "uary"))) (re.++ (str.to_re "Feb") (re.opt (str.to_re "ruary"))) (re.++ (str.to_re "Mar") (re.opt (str.to_re "ch"))) (re.++ (str.to_re "Apr") (re.opt (str.to_re "il"))) (str.to_re "May") (re.++ (str.to_re "Jun") (re.opt (str.to_re "e"))) (re.++ (str.to_re "Jul") (re.opt (str.to_re "y"))) (re.++ (str.to_re "Aug") (re.opt (str.to_re "ust"))) (re.++ (str.to_re "Sep") (re.opt (str.to_re "tember"))) (str.to_re "Sept") (re.++ (str.to_re "Oct") (re.opt (str.to_re "ober"))) (re.++ (str.to_re "Nov") (re.opt (str.to_re "ember"))) (re.++ (str.to_re "Dec") (re.opt (str.to_re "ember")))) (str.to_re "\u{a}"))))
(assert (not (str.in_re X (re.++ (re.union (re.++ (str.to_re "0") (re.range "1" "9")) (re.++ (str.to_re "1") (re.range "0" "2"))) (str.to_re "/") (re.union (re.++ (str.to_re "0") (re.range "1" "9")) (re.++ (str.to_re "1") (re.range "0" "9")) (re.++ (str.to_re "2") (re.range "0" "9")) (re.++ (str.to_re "3") (re.range "0" "1"))) (str.to_re "/") ((_ re.loop 4 4) (re.range "0" "9")) (str.to_re "\u{a}")))))
(assert (not (str.in_re X (str.to_re "pgwtjgxwthx/byb.xkyLOGurl=enews.earthlink.net\u{a}"))))
(assert (str.in_re X (re.union (re.++ (str.to_re "{") ((_ re.loop 8 8) (re.union (re.range "A" "Z") (re.range "a" "z") (re.range "0" "9"))) (str.to_re "-") ((_ re.loop 4 4) (re.union (re.range "A" "Z") (re.range "a" "z") (re.range "0" "9"))) (str.to_re "-") ((_ re.loop 4 4) (re.union (re.range "A" "Z") (re.range "a" "z") (re.range "0" "9"))) (str.to_re "-") ((_ re.loop 4 4) (re.union (re.range "A" "Z") (re.range "a" "z") (re.range "0" "9"))) (str.to_re "-") ((_ re.loop 12 12) (re.union (re.range "A" "Z") (re.range "a" "z") (re.range "0" "9"))) (str.to_re "}")) (re.++ ((_ re.loop 8 8) (re.union (re.range "A" "Z") (re.range "a" "z") (re.range "0" "9"))) (str.to_re "-") ((_ re.loop 4 4) (re.union (re.range "A" "Z") (re.range "a" "z") (re.range "0" "9"))) (str.to_re "-") ((_ re.loop 4 4) (re.union (re.range "A" "Z") (re.range "a" "z") (re.range "0" "9"))) (str.to_re "-") ((_ re.loop 4 4) (re.union (re.range "A" "Z") (re.range "a" "z") (re.range "0" "9"))) (str.to_re "-") ((_ re.loop 12 12) (re.union (re.range "A" "Z") (re.range "a" "z") (re.range "0" "9"))) (str.to_re "\u{a}")))))
(check-sat)

(exit)
